results - Copia/log/URT_02_deadline_heurFalse.log

Gurobi 10.0.1 (win64) logging started Fri Oct  6 16:53:10 2023

Set parameter LogFile to value "./results//log/URT_02_deadline_heurFalse.log"
Gurobi Optimizer version 10.0.1 build v10.0.1rc0 (win64)

CPU model: AMD Ryzen 7 3700X 8-Core Processor, instruction set [SSE2|AVX|AVX2]
Thread count: 8 physical cores, 16 logical processors, using up to 16 threads

Optimize a model with 40 rows, 27 columns and 122 nonzeros
Model fingerprint: 0xf1f35202
Model has 1 quadratic constraint
Variable types: 0 continuous, 27 integer (22 binary)
Coefficient statistics:
  Matrix range     [1e+00, 1e+07]
  QMatrix range    [1e+00, 1e+00]
  QLMatrix range   [1e+00, 2e+00]
  Objective range  [1e+00, 1e+00]
  Bounds range     [1e+00, 1e+00]
  RHS range        [1e+00, 3e+07]
Presolve removed 27 rows and 18 columns
Presolve time: 0.02s
Presolved: 13 rows, 9 columns, 35 nonzeros
Variable types: 0 continuous, 9 integer (4 binary)
Found heuristic solution: objective 45.0000000
Found heuristic solution: objective 32.0000000

Explored 0 nodes (0 simplex iterations) in 0.02 seconds (0.00 work units)
Thread count was 16 (of 16 available processors)

Solution count 2: 32 45 

Optimal solution found (tolerance 1.00e-04)
Best objective 3.200000000000e+01, best bound 3.200000000000e+01, gap 0.0000%
Warning: constraint name "precedence between 0,0 to 0,1 if x_[0,0,0,1,0]=0, i.e. 0,1 before 0,0" has a space
Warning: constraint name "precedence between 0,0 to 0,1 if x_[0,0,0,1,0]=0, i.e. 0,1 before 0,0" has a space
Warning: default constraint names used to write mps file
